Minimize
	value: tt

Subject to
tt + 2000 s_1_1 > 0
tt - t_1_1 - 2000.000000 s_1_1 > -1993.259000
tt + 2000 s_2_1 > 0
tt - t_2_1 - 2000.000000 s_2_1 > -1989.540900
tt + 2000 s_1_2 > 0
tt - t_1_2 - 2000.000000 s_1_2 > -1958.614000
tt + 2000 s_2_2 > 0
tt - t_2_2 - 2000.000000 s_2_2 > -1935.954800
tt + 2000 s_1_3 > 0
tt - t_1_3 - 2000.000000 s_1_3 > -1976.506878
tt + 2000 s_2_3 > 0
tt - t_2_3 - 2000.000000 s_2_3 > -1964.590300
tt + 2000 s_1_4 > 0
tt - t_1_4 - 2000.000000 s_1_4 > -1994.229500
tt + 2000 s_2_4 > 0
tt - t_2_4 - 2000.000000 s_2_4 > -1993.167700
tt + 2000 s_1_5 > 0
tt - t_1_5 - 2020.809280 s_1_5 + 20.809280 s_1_1 > -1999.549667
tt + 2000 s_2_5 > 0
tt - t_2_5 - 2051.376400 s_2_5 + 51.376400 s_2_1 > -1998.088600
s_1_1 + s_2_1  = 1
s_1_2 + s_2_2  = 1
s_1_3 + s_2_3  = 1
s_1_4 + s_2_4  = 1
s_1_5 + s_2_5  = 1
t_1_1 - t_1_2 + 2000.000000 u_1_1_2 > 41.386000
t_1_2 - t_1_1 - 2000.000000 u_1_1_2 > -1993.259000
t_2_1 - t_2_2 + 2000.000000 u_2_1_2 > 64.045200
t_2_2 - t_2_1 - 2000.000000 u_2_1_2 > -1989.540900
t_1_1 - t_1_3 + 2000.000000 u_1_1_3 > 23.493122
t_1_3 - t_1_1 - 2000.000000 u_1_1_3 > -1993.259000
t_2_1 - t_2_3 + 2000.000000 u_2_1_3 > 35.409700
t_2_3 - t_2_1 - 2000.000000 u_2_1_3 > -1989.540900
t_1_1 - t_1_4 + 2000.000000 u_1_1_4 > 5.770500
t_1_4 - t_1_1 - 2000.000000 u_1_1_4 > -1993.259000
t_2_1 - t_2_4 + 2000.000000 u_2_1_4 > 6.832300
t_2_4 - t_2_1 - 2000.000000 u_2_1_4 > -1989.540900
t_1_5 - t_1_1 - 2000.000000 s_1_1 > -1988.802080
t_1_5 - t_2_1 - 2000.000000 s_2_1 > -1975.935980
t_2_5 - t_1_1 - 2000.000000 s_1_1 > -1988.802080
t_2_5 - t_2_1 - 2000.000000 s_2_1 > -1975.935980
t_1_2 - t_1_1 + 2000.000000 u_1_2_1 > 6.741000
t_1_1 - t_1_2 - 2000.000000 u_1_2_1 > -1958.614000
t_2_2 - t_2_1 + 2000.000000 u_2_2_1 > 10.459100
t_2_1 - t_2_2 - 2000.000000 u_2_2_1 > -1935.954800
t_1_2 - t_1_3 + 2000.000000 u_1_2_3 > 23.493122
t_1_3 - t_1_2 - 2000.000000 u_1_2_3 > -1958.614000
t_2_2 - t_2_3 + 2000.000000 u_2_2_3 > 35.409700
t_2_3 - t_2_2 - 2000.000000 u_2_2_3 > -1935.954800
t_1_2 - t_1_4 + 2000.000000 u_1_2_4 > 5.770500
t_1_4 - t_1_2 - 2000.000000 u_1_2_4 > -1958.614000
t_2_2 - t_2_4 + 2000.000000 u_2_2_4 > 6.832300
t_2_4 - t_2_2 - 2000.000000 u_2_2_4 > -1935.954800
t_1_5 - t_1_2 - 2000.000000 s_1_2 > -1954.157080
t_1_5 - t_2_2 - 2000.000000 s_2_2 > -1922.349880
t_2_5 - t_1_2 - 2000.000000 s_1_2 > -1954.157080
t_2_5 - t_2_2 - 2000.000000 s_2_2 > -1922.349880
t_1_3 - t_1_1 + 2000.000000 u_1_3_1 > 6.741000
t_1_1 - t_1_3 - 2000.000000 u_1_3_1 > -1976.506878
t_2_3 - t_2_1 + 2000.000000 u_2_3_1 > 10.459100
t_2_1 - t_2_3 - 2000.000000 u_2_3_1 > -1964.590300
t_1_3 - t_1_2 + 2000.000000 u_1_3_2 > 41.386000
t_1_2 - t_1_3 - 2000.000000 u_1_3_2 > -1976.506878
t_2_3 - t_2_2 + 2000.000000 u_2_3_2 > 64.045200
t_2_2 - t_2_3 - 2000.000000 u_2_3_2 > -1964.590300
t_1_3 - t_1_4 + 2000.000000 u_1_3_4 > 5.770500
t_1_4 - t_1_3 - 2000.000000 u_1_3_4 > -1976.506878
t_2_3 - t_2_4 + 2000.000000 u_2_3_4 > 6.832300
t_2_4 - t_2_3 - 2000.000000 u_2_3_4 > -1964.590300
t_1_5 - t_1_3 - 2000.000000 s_1_3 > -1972.049958
t_1_5 - t_2_3 - 2000.000000 s_2_3 > -1950.985380
t_2_5 - t_1_3 - 2000.000000 s_1_3 > -1972.049958
t_2_5 - t_2_3 - 2000.000000 s_2_3 > -1950.985380
t_1_4 - t_1_1 + 2000.000000 u_1_4_1 > 6.741000
t_1_1 - t_1_4 - 2000.000000 u_1_4_1 > -1994.229500
t_2_4 - t_2_1 + 2000.000000 u_2_4_1 > 10.459100
t_2_1 - t_2_4 - 2000.000000 u_2_4_1 > -1993.167700
t_1_4 - t_1_2 + 2000.000000 u_1_4_2 > 41.386000
t_1_2 - t_1_4 - 2000.000000 u_1_4_2 > -1994.229500
t_2_4 - t_2_2 + 2000.000000 u_2_4_2 > 64.045200
t_2_2 - t_2_4 - 2000.000000 u_2_4_2 > -1993.167700
t_1_4 - t_1_3 + 2000.000000 u_1_4_3 > 23.493122
t_1_3 - t_1_4 - 2000.000000 u_1_4_3 > -1994.229500
t_2_4 - t_2_3 + 2000.000000 u_2_4_3 > 35.409700
t_2_3 - t_2_4 - 2000.000000 u_2_4_3 > -1993.167700
t_1_5 - t_1_4 - 2000.000000 s_1_4 > -1989.772580
t_1_5 - t_2_4 - 2000.000000 s_2_4 > -1979.562780
t_2_5 - t_1_4 - 2000.000000 s_1_4 > -1989.772580
t_2_5 - t_2_4 - 2000.000000 s_2_4 > -1979.562780
t_1_5 - t_1_1 - 2000.000000 s_1_1 > -1988.802080
t_1_5 - t_2_1 - 2000.000000 s_2_1 > -1975.935980
t_2_5 - t_1_1 - 2000.000000 s_1_1 > -1988.802080
t_2_5 - t_2_1 - 2000.000000 s_2_1 > -1975.935980
t_1_5 - t_1_2 - 2000.000000 s_1_2 > -1954.157080
t_1_5 - t_2_2 - 2000.000000 s_2_2 > -1922.349880
t_2_5 - t_1_2 - 2000.000000 s_1_2 > -1954.157080
t_2_5 - t_2_2 - 2000.000000 s_2_2 > -1922.349880
t_1_5 - t_1_3 - 2000.000000 s_1_3 > -1972.049958
t_1_5 - t_2_3 - 2000.000000 s_2_3 > -1950.985380
t_2_5 - t_1_3 - 2000.000000 s_1_3 > -1972.049958
t_2_5 - t_2_3 - 2000.000000 s_2_3 > -1950.985380
t_1_5 - t_1_4 - 2000.000000 s_1_4 > -1989.772580
t_1_5 - t_2_4 - 2000.000000 s_2_4 > -1979.562780
t_2_5 - t_1_4 - 2000.000000 s_1_4 > -1989.772580
t_2_5 - t_2_4 - 2000.000000 s_2_4 > -1979.562780
Binary
s_1_1
s_2_1
s_1_2
s_2_2
s_1_3
s_2_3
s_1_4
s_2_4
s_1_5
s_2_5
u_1_1_2
u_2_1_2
u_1_1_3
u_2_1_3
u_1_1_4
u_2_1_4
u_1_2_1
u_2_2_1
u_1_2_3
u_2_2_3
u_1_2_4
u_2_2_4
u_1_3_1
u_2_3_1
u_1_3_2
u_2_3_2
u_1_3_4
u_2_3_4
u_1_4_1
u_2_4_1
u_1_4_2
u_2_4_2
u_1_4_3
u_2_4_3

End
